
Gurobi 8.0.1 (linux64, Python) logging started Thu May 14 07:48:52 2020


Gurobi 8.0.1 (linux64, Python) logging started Thu May 14 07:50:37 2020


Gurobi 8.0.1 (linux64, Python) logging started Thu May 14 07:52:42 2020


Gurobi 8.0.1 (linux64, Python) logging started Thu May 14 07:55:29 2020


Gurobi 8.0.1 (linux64, Python) logging started Thu May 14 07:58:00 2020


Gurobi 8.0.1 (linux64, Python) logging started Thu May 14 08:00:48 2020


Gurobi 8.0.1 (linux64, Python) logging started Thu May 14 08:02:17 2020


Gurobi 8.0.1 (linux64, Python) logging started Thu May 14 08:02:49 2020


Gurobi 8.0.1 (linux64, Python) logging started Thu May 14 08:03:26 2020


Gurobi 8.0.1 (linux64, Python) logging started Thu May 14 08:04:19 2020

